Gurobi 12.0.1:   lim:time = 28800
  mip:bestbound = 1
Set parameter LogToConsole to value 1
  tech:outlev = 1
Set parameter InfUnbdInfo to value 1
Gurobi Optimizer version 12.0.1 build v12.0.1rc0 (win64 - Windows 11.0 (22631.2))

CPU model: Intel(R) Core(TM) i7-10700 CPU @ 2.90GHz, instruction set [SSE2|AVX|AVX2]
Thread count: 8 physical cores, 16 logical processors, using up to 16 threads

Non-default parameters:
TimeLimit  28800
InfUnbdInfo  1

Optimize a model with 385 rows, 998 columns and 5020 nonzeros
Model fingerprint: 0xf0a7450a
Model has 5 quadratic objective terms
Model has 10 quadratic constraints
Model has 225 simple general constraints
  225 AND
Variable types: 19 continuous, 979 integer (0 binary)
Coefficient statistics:
  Matrix range     [1e+00, 1e+05]
  QMatrix range    [4e+00, 2e+01]
  QLMatrix range   [1e+00, 2e+01]
  Objective range  [3e+01, 3e+02]
  QObjective range [4e+00, 2e+01]
  Bounds range     [1e+00, 1e+00]
  RHS range        [1e+00, 1e+05]
  QRHS range       [7e+01, 1e+02]
Presolve added 829 rows and 0 columns
Presolve removed 0 rows and 25 columns
Presolve time: 0.01s
Presolved: 1807 rows, 1473 columns, 8420 nonzeros
Variable types: 15 continuous, 1458 integer (1458 binary)

Root relaxation: objective 6.896533e+02, 51 iterations, 0.00 seconds (0.00 work units)

    Nodes    |    Current Node    |     Objective Bounds      |     Work
 Expl Unexpl |  Obj  Depth IntInf | Incumbent    BestBd   Gap | It/Node Time

     0     0  689.65326    0   29          -  689.65326      -     -    0s
H    0     0                    1783.7300000  689.65326  61.3%     -    0s
H    0     0                    1501.0700000  691.41566  53.9%     -    0s
     0     0  736.57000    0   34 1501.07000  736.57000  50.9%     -    0s
     0     0  744.34000    0   31 1501.07000  744.34000  50.4%     -    0s
     0     0  744.34000    0   36 1501.07000  744.34000  50.4%     -    0s
     0     0  744.34000    0   30 1501.07000  744.34000  50.4%     -    0s
     0     0  744.34000    0   30 1501.07000  744.34000  50.4%     -    0s
     0     0  744.34000    0   30 1501.07000  744.34000  50.4%     -    0s
     0     0  744.34000    0   30 1501.07000  744.34000  50.4%     -    0s
     0     0  744.34000    0   28 1501.07000  744.34000  50.4%     -    0s
H    0     0                    1481.2100000  744.34000  49.7%     -    0s
     0     0  744.34000    0   28 1481.21000  744.34000  49.7%     -    0s
     0     0  744.34000    0   28 1481.21000  744.34000  49.7%     -    0s
     0     2  744.34000    0   28 1481.21000  744.34000  49.7%     -    0s
H   26    63                    1328.1800000  744.36290  44.0%  25.1    0s
H  102   107                    1297.4000000  744.37890  42.6%  13.8    0s
H  103   107                    1277.9000000  744.37890  41.7%  13.8    0s
H  105   107                    1276.9700000  744.37890  41.7%  13.6    0s
H 1725  1257                    1275.6200000  755.20401  40.8%   9.4    0s
H 1728  1196                    1051.5500000  755.20401  28.2%   9.4    0s
H 1786  1200                    1050.4100000  755.20401  28.1%  10.3    1s
H 8235  3395                    1048.4100000  795.64619  24.1%  11.5    2s
*13031  5625              34    1047.8300000  811.58667  22.5%  13.0    3s
H13182  5621                    1045.8800000  811.73537  22.4%  13.0    3s
*13443  5606              32    1014.2000000  812.31130  19.9%  13.1    3s
 20464  7531  933.24438   19   12 1014.20000  836.69000  17.5%  13.8    5s
H27528  8809                     996.9200000  853.87735  14.3%  14.2    7s
 36760 10367 infeasible   35       996.92000  873.89552  12.3%  14.5   10s
 51996 11973  934.31437   25    3  996.92000  896.19000  10.1%  14.6   15s
 72196 12970  932.49310   25   25  996.92000  916.55000  8.06%  15.1   20s
 88555 12554  964.33587   34   41  996.92000  929.14750  6.80%  15.3   25s
 103448 10436  987.15000   33   34  996.92000  940.44089  5.67%  15.4   30s
 115694  7263     cutoff   43       996.92000  952.30879  4.47%  15.6   35s
 130356     0     cutoff   36       996.92000  987.79000  0.92%  15.4   40s

Cutting planes:
  Learned: 13
  Gomory: 11
  Cover: 120
  Implied bound: 99
  Projected implied bound: 1
  Dual implied bound: 1
  MIR: 34
  Mixing: 62
  StrongCG: 11
  Flow cover: 203
  GUB cover: 1
  Inf proof: 62
  Zero half: 26
  RLT: 61
  Relax-and-lift: 3
  BQP: 4

Explored 130944 nodes (2017022 simplex iterations) in 40.11 seconds (27.40 work units)
Thread count was 16 (of 16 available processors)

Solution count 10: 996.92 1014.2 1045.88 ... 1277.9

Optimal solution found (tolerance 1.00e-04)
Best objective 9.969200000000e+02, best bound 9.969200000000e+02, gap 0.0000%

AMPL MP initial flat model has 773 variables (0 integer, 754 binary);
Objectives: 1 quadratic; 
Constraints:  385 linear; 10 quadratic;
Logical expressions:  225 and;

AMPL MP final model has 998 variables (0 integer, 979 binary);
Objectives: 1 quadratic; 
Constraints:  385 linear; 10 quadratic;
Logical expressions:  225 and;


-----RESULTS INFO-----
running_time:  40.188
TC.best_bound:  996.92
TC:  996.9200000000001
MIP Gap (%):  1.1403807499259321e-14
=== Vehicle Routes ===
Vehicle 1: 0 → 17
Vehicle 1: 1 → 11
Vehicle 1: 2 → 5
Vehicle 1: 3 → 0
Vehicle 1: 4 → 9
Vehicle 1: 5 → 10
Vehicle 1: 9 → 14
Vehicle 1: 10 → 3
Vehicle 1: 11 → 2
Vehicle 1: 12 → 4
Vehicle 1: 14 → 1
Vehicle 1: 17 → 12

=== Full Vehicle Routes ===
Vehicle 1: 0 → 17 → 12 → 4 → 9 → 14 → 1 → 11 → 2 → 5 → 10 → 3 → 0
Vehicle 2: 0 → 0
Vehicle 3: 0 → 0
Arc used by MRT line: y variables:
MRT used: 12 → 13
Customer assigment to PL: u variables:
6 14
7 17
8 13
Node is served by regular vehicle: g variables:
1
2
3
4
5
9
10
11
14
17
12
Customer assigment to Home delivery: gm variables:
1
2
3
4
5
9
10
11
Customer's demand delivered to PL: l variables:
6
7
8
